29,73
5,21
41,36
58,84
111,77
196,10
118,41
81,70
139,9
7,84
29,69
56,31
150,55
74,42
99,22
198,72
9,31
159,22
25,30
155,31
9,90
192,87
20,31
30,43
96,80
94,9
34,58
197,32
105,10
21,32
33,3
146,70
23,22
138,37
131,23
18,66
90,8
70,86
101,80
163,61
63,44
187,99
1,42
179,19
198,71
30,97
199,16
12,10
140,1
63,34
